1605365
64,6,29,60,23,49,19,5,40,56,32,12,1,54,13,65,63,16,59,36,50,28,31,22,52,33,57,18,10,14,44,53,37,39,62,51,35,68,8,15,58,9,17,27,45,2,48,4,20,47,24,61,42,3,21,30,25,41,11,66,26,55,34,46,43,7,38,67